\ This file has been generated by DOcplex
\ ENCODING=ISO-8859-1
\Problem name: docplex_model1

Minimize
 obj: - 700000 x001 - 1400000 x002 - 2100000 x003 - 2800000 x004 - 280000 x011
      - 560000 x012 - 840000 x013 - 1120000 x014 - 1600000 x101 - 3200000 x102
      - 4800000 x103 - 6400000 x104 - 640000 x111 - 1280000 x112 - 1920000 x113
      - 2560000 x114 + [ 1000000 x001^2 + 4000000 x001*x002 + 6000000 x001*x003
      + 8000000 x001*x004 - 1000000 x001*x101 - 2000000 x001*x102
      - 3000000 x001*x103 - 4000000 x001*x104 + 4000000 x002^2
      + 12000000 x002*x003 + 16000000 x002*x004 - 2000000 x002*x101
      - 4000000 x002*x102 - 6000000 x002*x103 - 8000000 x002*x104
      + 9000000 x003^2 + 24000000 x003*x004 - 3000000 x003*x101
      - 6000000 x003*x102 - 9000000 x003*x103 - 12000000 x003*x104
      + 16000000 x004^2 - 4000000 x004*x101 - 8000000 x004*x102
      - 12000000 x004*x103 - 16000000 x004*x104 + 160000 x011^2
      + 640000 x011*x012 + 960000 x011*x013 + 1280000 x011*x014
      - 160000 x011*x111 - 320000 x011*x112 - 480000 x011*x113
      - 640000 x011*x114 + 640000 x012^2 + 1920000 x012*x013 + 2560000 x012*x014
      - 320000 x012*x111 - 640000 x012*x112 - 960000 x012*x113
      - 1280000 x012*x114 + 1440000 x013^2 + 3840000 x013*x014
      - 480000 x013*x111 - 960000 x013*x112 - 1440000 x013*x113
      - 1920000 x013*x114 + 2560000 x014^2 - 640000 x014*x111
      - 1280000 x014*x112 - 1920000 x014*x113 - 2560000 x014*x114
      + 1000000 x101^2 + 4000000 x101*x102 + 6000000 x101*x103
      + 8000000 x101*x104 + 4000000 x102^2 + 12000000 x102*x103
      + 16000000 x102*x104 + 9000000 x103^2 + 24000000 x103*x104
      + 16000000 x104^2 + 160000 x111^2 + 640000 x111*x112 + 960000 x111*x113
      + 1280000 x111*x114 + 640000 x112^2 + 1920000 x112*x113
      + 2560000 x112*x114 + 1440000 x113^2 + 3840000 x113*x114 + 2560000 x114^2
      + 200 y000^2 + 200 y000*y001 - 200 y000*y002 - 400 y000*y003
      - 400 y000*y100 - 200 y000*y101 + 200 y000*y102 + 400 y000*y103
      + 50 y001^2 - 100 y001*y002 - 200 y001*y003 - 200 y001*y100
      - 100 y001*y101 + 100 y001*y102 + 200 y001*y103 + 50 y002^2
      + 200 y002*y003 + 200 y002*y100 + 100 y002*y101 - 100 y002*y102
      - 200 y002*y103 + 200 y003^2 + 400 y003*y100 + 200 y003*y101
      - 200 y003*y102 - 400 y003*y103 + 200 y100^2 + 200 y100*y101
      - 200 y100*y102 - 400 y100*y103 + 50 y101^2 - 100 y101*y102
      - 200 y101*y103 + 50 y102^2 + 200 y102*y103 + 200 y103^2 ]/2 + 6100000
Subject To
 bucket_p_0: x000 + x001 + x002 + x003 + x004 = 1
 bucket_p_1: x010 + x011 + x012 + x013 + x014 = 1
 bucket_p_2: x100 + x101 + x102 + x103 + x104 = 1
 bucket_p_3: x110 + x111 + x112 + x113 + x114 = 1
 bucket_s_0: y000 + y001 + y002 + y003 = 1
 bucket_s_1: y100 + y101 + y102 + y103 = 1
 power_balance_plants_0: 500 x001 + 1000 x002 + 1500 x003 + 2000 x004 = 500
 power_balance_plants_1: 200 x011 + 400 x012 + 600 x013 + 800 x014 = 200
 power_balance_all_times_0: 500 x001 + 1000 x002 + 1500 x003 + 2000 x004
                            + 200 x011 + 400 x012 + 600 x013 + 800 x014 = 700
 power_balance_all_times_1: 500 x101 + 1000 x102 + 1500 x103 + 2000 x104
                            + 200 x111 + 400 x112 + 600 x113 + 800 x114 = 1600
 transf_min_1_0: 10 y000 + 5 y001 - 5 y002 - 10 y003 - 10 y100 - 5 y101 + 5 y102
                 + 10 y103 >= -20
 transf_max_1_0: 10 y000 + 5 y001 - 5 y002 - 10 y003 - 10 y100 - 5 y101 + 5 y102
                 + 10 y103 <= 20
 branch_utilization_0: - 500 x001 - 1000 x002 - 1500 x003 - 2000 x004 - 200 x011
                       - 400 x012 - 600 x013 - 800 x014 - 500 x101 - 1000 x102
                       - 1500 x103 - 2000 x104 - 200 x111 - 400 x112 - 600 x113
                       - 800 x114 + 10 y000 + 5 y001 - 5 y002 - 10 y003
                       + 10 y100 + 5 y101 - 5 y102 - 10 y103 <= -2290
 branch_utilization_1: - 1000 x001 - 2000 x002 - 3000 x003 - 4000 x004
                       - 200 x011 - 400 x012 - 600 x013 - 800 x014 - 1000 x101
                       - 2000 x102 - 3000 x103 - 4000 x104 - 200 x111 - 400 x112
                       - 600 x113 - 800 x114 + 40 y000 + 20 y001 - 20 y002
                       - 40 y003 + 40 y100 + 20 y101 - 20 y102 - 40 y103 <= 
                       -3860
 power_min_0: - 500 x001 - 1000 x002 - 1500 x003 - 2000 x004 + 500 x101
              + 1000 x102 + 1500 x103 + 2000 x104 >= -1000
 power_min_1: - 200 x011 - 400 x012 - 600 x013 - 800 x014 + 200 x111 + 400 x112
              + 600 x113 + 800 x114 >= -1000
 power_max_0: - 500 x001 - 1000 x002 - 1500 x003 - 2000 x004 + 500 x101
              + 1000 x102 + 1500 x103 + 2000 x104 <= 1000
 power_max_1: - 200 x011 - 400 x012 - 600 x013 - 800 x014 + 200 x111 + 400 x112
              + 600 x113 + 800 x114 <= 1000
 producer_off_0: x000 - x100 <= 1
 producer_off_1: x010 - x110 <= 1
 producer_on_0: - x000 + x100 <= 1
 producer_on_1: - x010 + x110 <= 1

Bounds
 0 <= x000 <= 1
 0 <= x001 <= 1
 0 <= x002 <= 1
 0 <= x003 <= 1
 0 <= x004 <= 1
 0 <= x010 <= 1
 0 <= x011 <= 1
 0 <= x012 <= 1
 0 <= x013 <= 1
 0 <= x014 <= 1
 0 <= x100 <= 1
 0 <= x101 <= 1
 0 <= x102 <= 1
 0 <= x103 <= 1
 0 <= x104 <= 1
 0 <= x110 <= 1
 0 <= x111 <= 1
 0 <= x112 <= 1
 0 <= x113 <= 1
 0 <= x114 <= 1
 0 <= y000 <= 1
 0 <= y001 <= 1
 0 <= y002 <= 1
 0 <= y003 <= 1
 0 <= y100 <= 1
 0 <= y101 <= 1
 0 <= y102 <= 1
 0 <= y103 <= 1

Binaries
 x000 x001 x002 x003 x004 x010 x011 x012 x013 x014 x100 x101 x102 x103 x104 x110
 x111 x112 x113 x114 y000 y001 y002 y003 y100 y101 y102 y103
End
